n_res = 4;
rcap = [13, 13, 110, 123];
rtype = [1, 1, 2, 2];
n_tasks = 20;
modes = [ {1, 2, 3}, {4, 5, 6}, {7, 8, 9}, {10, 11, 12}, {13, 14, 15}, {16, 17, 18}, {19, 20, 21}, {22, 23, 24}, {25, 26, 27}, {28, 29, 30}, {31, 32, 33}, {34, 35, 36}, {37, 38, 39}, {40, 41, 42}, {43, 44, 45}, {46, 47, 48}, {49, 50, 51}, {52, 53, 54}, {55, 56, 57}, {58, 59, 60} ];
succ = [ {5, 11, 20}, {4, 6}, {9, 16}, {5, 7, 16}, {9, 12, 18}, {14}, {8, 10}, {11, 13, 18}, {17}, {15, 20}, {12, 14, 17}, {15}, {14, 17, 20}, {15}, {19}, {18, 19}, {19}, {}, {}, {} ];
n_opt = 60;
dur = [1, 7, 10, 8, 9, 9, 5, 7, 8, 4, 5, 10, 9, 10, 10, 1, 1, 3, 6, 9, 10, 7, 10, 10, 3, 4, 8, 6, 6, 8, 1, 5, 8, 2, 6, 7, 3, 4, 7, 4, 8, 9, 1, 4, 6, 7, 8, 10, 5, 5, 8, 1, 2, 2, 1, 1, 9, 2, 6, 8];
rreq = [|  9,  8,  8,  6,  6,  3,  5,  4,  4,  4,  3,  3,  6,  6,  6,  3,  4,  3,  8,  8,  8,  4,  2,  3, 10,  7,  5,  9,  7,  3, 10,  9,  7,  5,  3,  1,  3,  3,  3,  5,  3,  3,  9,  9,  8,  7,  6,  5,  8,  8,  8,  3,  2,  3,  7,  9,  4,  9,  8,  4
        |  6,  5,  5,  7,  6,  6,  7,  6,  5,  8,  7,  5,  7,  5,  6,  4,  4,  3,  9,  9,  9,  3,  2,  2,  6,  4,  3,  7,  7,  6, 10,  7,  6, 10, 10,  9,  6,  6,  5,  2,  1,  1,  6,  5,  4,  9,  8,  8,  7,  4,  1,  3,  1,  1,  8,  8,  7,  8,  8,  7
        |  9,  9,  8,  5,  1,  4,  8,  7,  4,  6,  5,  4,  5,  5,  4,  5,  4,  4,  5,  5,  5,  4,  3,  2,  8,  7,  6,  6,  6,  5,  2,  1,  1,  7,  7,  7,  2,  1,  1,  7,  7,  6, 10,  9,  9,  5,  5,  5,  6,  7,  5,  9,  8,  7,  2,  2,  2,  5,  3,  3
        |  9,  8,  6, 10,  9,  8,  9,  5,  3,  7,  5,  1,  8,  6,  4,  8,  6,  1,  8,  5,  4,  5,  3,  3,  3,  3,  3,  8,  9,  7,  7,  6,  2,  9,  8,  6,  4,  4,  3,  7,  6,  6,  8,  8,  7,  6,  5,  4,  7,  7,  4,  6,  6,  6,  5,  4,  2,  2,  2,  2 |];
